p td 50 75
24 41
24 33
24 5
41 30
41 35
9 45
9 8
9 2
45 23
45 26
5 31
5 20
31 30
31 0
20 25
20 28
25 39
25 11
10 11
10 40
10 39
11 22
0 47
0 35
47 2
47 13
16 42
16 48
16 34
42 6
42 48
8 44
8 36
44 23
44 34
4 18
4 43
4 14
18 32
18 29
30 3
6 28
6 22
13 26
13 37
26 12
37 39
37 40
28 17
21 35
21 19
21 43
7 38
7 27
7 34
38 12
38 15
33 36
33 3
36 40
14 46
14 43
46 48
46 29
15 19
15 29
19 1
23 27
1 2
1 49
17 27
17 49
22 32
3 12
49 32
